
List of user-set options:

                                    Name   Value                used
                           compl_inf_tol = 1                     yes
                         constr_viol_tol = 1                     yes
                            dual_inf_tol = 1000                  yes
                           linear_solver = ma97                  yes
                              ma86_small = 1e-30                  no
                                  ma86_u = 0.0001                 no
                              ma97_order = best                  yes
                              ma97_small = 1e-30                 yes
                            ma97_switch1 = at_start              yes
                            ma97_switch2 = od_hd_reuse           yes
                                  ma97_u = 1e-06                 yes
                               ma97_umax = 0.5                   yes
                                max_iter = 1000                  yes
                    max_refinement_steps = 20                    yes
                    min_refinement_steps = 5                     yes
                                 mu_init = 1e-06                 yes
           mu_superlinear_decrease_power = 1.25                  yes
                   nlp_scaling_min_value = 1e-08                 yes
                        option_file_name = Preset_Case_164_pf.opt  yes
                             output_file = ./tmp/Preset_Case_164_pf.output  yes
                      print_user_options = yes                   yes
        required_infeasibility_reduction = 1                      no
                                     tol = 1e-08                 yes
                   warm_start_bound_frac = 1e-20                 yes
                   warm_start_bound_push = 1e-20                 yes
                   warm_start_init_point = yes                   yes
              warm_start_mult_bound_push = 1e-20                 yes
                warm_start_mult_init_max = 1e+40                 yes
             warm_start_slack_bound_frac = 1e-20                 yes
             warm_start_slack_bound_push = 1e-20                 yes

******************************************************************************
This program contains Ipopt, a library for large-scale nonlinear optimization.
 Ipopt is released as open source code under the Eclipse Public License (EPL).
         For more information visit http://projects.coin-or.org/Ipopt
******************************************************************************

This is Ipopt version 3.12.10, running with linear solver ma97.

Number of nonzeros in equality constraint Jacobian...:   123442
Number of nonzeros in inequality constraint Jacobian.:      213
Number of nonzeros in Lagrangian Hessian.............:    49069

Total number of variables............................:    31591
                     variables with only lower bounds:    12912
                variables with lower and upper bounds:    15130
                     variables with only upper bounds:        0
Total number of equality constraints.................:    31483
Total number of inequality constraints...............:       25
        inequality constraints with only lower bounds:        4
   inequality constraints with lower and upper bounds:        0
        inequality constraints with only upper bounds:       21

iter    objective    inf_pr   inf_du lg(mu)  ||d||  lg(rg) alpha_du alpha_pr  ls
   0 -5.3412147e+00 4.05e-03 1.02e+00  -6.0 0.00e+00    -  0.00e+00 0.00e+00   0
   1 -5.3405346e+00 1.30e-01 1.02e+00  -6.0 3.31e+05    -  9.98e-05 8.65e-05h  5
   2 -5.3421481e+00 1.30e-01 3.80e+01  -6.0 3.67e+03    -  1.68e-01 1.95e-03h  1
   3 -5.4793541e+00 1.07e+00 3.62e+02  -6.0 3.67e+03    -  1.19e-01 1.66e-01f  1
   4 -5.6029419e+00 2.21e+00 6.67e+02  -6.0 3.02e+03    -  3.87e-01 2.14e-01h  1
   5 -5.8728179e+00 1.76e+01 5.31e+03  -6.0 3.43e+03    -  5.22e-01 9.12e-01h  1
   6 -5.8384365e+00 8.37e+00 1.14e+03  -6.0 6.94e+02    -  4.73e-02 7.83e-01h  1
   7 -5.8373299e+00 5.22e+00 7.25e+02  -6.0 3.90e+02    -  1.52e-01 4.01e-01h  1
   8 -5.8379751e+00 4.82e+00 6.69e+02  -6.0 5.41e+02    -  2.14e-01 7.75e-02h  1
   9 -5.8416999e+00 4.59e+00 1.99e+03  -6.0 1.51e+03    -  1.05e-02 5.15e-02h  1
iter    objective    inf_pr   inf_du lg(mu)  ||d||  lg(rg) alpha_du alpha_pr  ls
  10 -5.8404225e+00 3.92e+00 2.14e+03  -6.0 2.45e+02    -  6.96e-04 1.47e-01h  1
  11 -5.8279714e+00 1.32e+00 3.17e+03  -6.0 2.11e+02    -  3.05e-01 9.87e-01h  1
  12 -5.8299622e+00 1.19e+00 2.07e+03  -6.0 2.31e+02    -  4.35e-01 1.15e-01h  1
  13 -5.8613832e+00 1.33e+00 1.05e+04  -6.0 4.99e+02    -  6.05e-02 1.00e+00h  1
  14 -5.8601613e+00 1.10e+00 1.24e+06  -6.0 5.67e+01  -4.0 1.24e-03 1.69e-01h  1
  15 -5.8538625e+00 6.72e-03 2.24e+02  -6.0 5.08e+00  -4.5 9.69e-01 1.00e+00h  1
  16 -5.8565454e+00 2.63e-02 4.47e+00  -6.0 1.25e+01  -5.0 1.00e+00 1.00e+00h  1
  17 -5.8629817e+00 9.28e-02 5.28e+00  -6.0 3.41e+01  -5.4 1.00e+00 1.00e+00h  1
  18 -5.8761627e+00 1.17e-01 8.51e+00  -6.0 7.52e+01  -5.9 1.00e+00 1.00e+00h  1
  19 -5.8910173e+00 2.21e-01 1.88e+01  -6.0 1.09e+02  -6.4 1.00e+00 1.00e+00h  1
iter    objective    inf_pr   inf_du lg(mu)  ||d||  lg(rg) alpha_du alpha_pr  ls
  20 -5.9043904e+00 1.08e+00 2.22e+01  -6.0 1.93e+02  -6.9 1.00e+00 1.00e+00h  1
  21 -5.9087604e+00 1.16e+00 3.23e+01  -6.0 1.94e+03  -7.3 1.09e-01 3.20e-02h  1
  22 -5.9179820e+00 5.97e-01 3.68e+04  -6.0 1.36e+02  -6.9 1.00e+00 7.13e-01h  1
  23 -5.9301087e+00 8.63e-01 4.82e+04  -6.0 4.89e+02  -7.4 3.01e-01 2.48e-01h  1
  24 -5.9624450e+00 7.57e+00 5.04e+05  -6.0 9.06e+02  -7.9 4.16e-02 6.33e-01h  1
  25r-5.9624450e+00 7.57e+00 1.00e+03   0.9 0.00e+00    -  0.00e+00 4.73e-07R  2
  26r-5.9988197e+00 7.57e+00 1.95e+03   0.9 3.34e+04    -  1.66e-06 4.10e-07f  1
  27 -5.9980115e+00 7.44e+00 1.60e+05  -6.0 8.13e+01    -  1.17e-01 1.72e-02h  1
  28 -5.9883855e+00 5.90e+00 2.20e+06  -6.0 7.76e+01    -  1.72e-02 2.07e-01h  1
  29 -5.9704837e+00 3.09e+00 1.15e+06  -6.0 5.47e+01    -  3.26e-01 4.76e-01h  1
iter    objective    inf_pr   inf_du lg(mu)  ||d||  lg(rg) alpha_du alpha_pr  ls
  30 -5.9704784e+00 3.08e+00 1.15e+06  -6.0 1.99e+01    -  6.31e-01 2.44e-03h  1
  31 -5.9488682e+00 7.39e-02 1.02e+02  -6.0 1.59e+01    -  3.63e-01 1.00e+00h  1
  32 -5.9494981e+00 5.12e-02 7.04e+01  -6.0 2.51e+00    -  6.13e-01 3.07e-01h  1
  33 -5.9520499e+00 3.88e-04 1.42e+01  -6.0 3.22e+00    -  7.15e-01 1.00e+00h  1
  34 -5.9524481e+00 4.56e-03 1.46e+01  -6.0 5.01e+00    -  5.67e-01 1.00e+00h  1
  35 -5.9529755e+00 3.19e-02 2.02e-01  -6.0 1.07e+01    -  9.70e-01 1.00e+00h  1
  36 -5.9555311e+00 6.55e-01 9.58e+00  -6.0 3.59e+02    -  8.24e-01 1.93e-01h  1
  37 -5.9582287e+00 4.85e-01 5.00e+00  -6.0 1.88e+02  -6.5 9.16e-04 3.72e-01h  1
  38 -5.9622675e+00 4.53e-01 2.37e+01  -6.0 8.32e+02    -  2.55e-01 6.68e-02h  1
  39 -5.9710793e+00 6.03e-01 1.51e+01  -6.0 4.69e+02    -  1.27e-01 5.27e-01h  1
iter    objective    inf_pr   inf_du lg(mu)  ||d||  lg(rg) alpha_du alpha_pr  ls
  40 -5.9724841e+00 8.56e-01 1.65e+04  -6.0 6.17e+02    -  2.63e-02 1.72e-01h  1
  41 -5.9732963e+00 5.52e-01 2.14e+02  -6.0 4.51e+02    -  8.34e-01 1.00e+00h  1
  42 -5.9736922e+00 1.40e+00 1.12e+04  -6.0 7.69e+02    -  1.72e-01 1.00e+00h  1
  43 -5.9723444e+00 9.49e-02 4.51e+01  -6.0 1.66e+02    -  9.93e-01 1.00e+00h  1
  44 -5.9721320e+00 4.51e-02 2.63e+00  -6.0 8.48e+01    -  1.00e+00 1.00e+00h  1
  45 -5.9721123e+00 4.77e-05 1.87e-03  -6.0 1.72e+00    -  1.00e+00 1.00e+00h  1
  46 -5.9721123e+00 2.85e-10 1.16e-08  -6.0 4.92e-03    -  1.00e+00 1.00e+00h  1
  47 -5.9722467e+00 3.10e+00 1.01e+02  -7.5 5.80e+02    -  4.31e-01 7.78e-01f  1
  48 -5.9722359e+00 7.87e-01 5.86e+00  -7.5 1.42e+02    -  9.53e-01 8.17e-01h  1
  49 -5.9722302e+00 1.52e-02 4.19e-02  -7.5 3.03e+01    -  1.00e+00 1.00e+00h  1
iter    objective    inf_pr   inf_du lg(mu)  ||d||  lg(rg) alpha_du alpha_pr  ls
  50 -5.9722300e+00 1.98e-05 9.97e-06  -7.5 1.14e+00    -  1.00e+00 1.00e+00h  1
  51 -5.9722300e+00 4.98e-09 3.67e-09  -7.5 1.78e-02    -  1.00e+00 1.00e+00h  1
  52 -5.9722315e+00 3.33e-03 9.15e-01  -9.0 1.76e+01    -  9.25e-01 8.26e-01h  1
  53 -5.9722318e+00 1.24e-04 3.48e-01  -9.0 2.81e+00    -  9.24e-01 1.00e+00h  1
  54 -5.9722318e+00 3.55e-09 4.28e-09  -9.0 1.52e-02    -  1.00e+00 1.00e+00h  1

Number of Iterations....: 54

                                   (scaled)                 (unscaled)
Objective...............:  -4.6658060902357104e+00   -5.9722317955017097e+00
Dual infeasibility......:   4.2792893853811388e-09    5.4774904132878575e-09
Constraint violation....:   2.2181501616210764e-09    3.5543052945286036e-09
Complementarity.........:   1.3169117789950819e-09    1.6856470771137047e-09
Overall NLP error.......:   4.2792893853811388e-09    5.4774904132878575e-09


Number of objective function evaluations             = 62
Number of objective gradient evaluations             = 55
Number of equality constraint evaluations            = 62
Number of inequality constraint evaluations          = 62
Number of equality constraint Jacobian evaluations   = 56
Number of inequality constraint Jacobian evaluations = 56
Number of Lagrangian Hessian evaluations             = 54
Total CPU secs in IPOPT (w/o function evaluations)   =    109.330
Total CPU secs in NLP function evaluations           =      1.932

EXIT: Optimal Solution Found.
